c generated by sgen
p cnf 81 172
-2 -3 -4 0
-1 -3 -4 0
-1 -2 -4 0
-1 -2 -3 0
-6 -7 -8 0
-5 -7 -8 0
-5 -6 -8 0
-5 -6 -7 0
-10 -11 -12 0
-9 -11 -12 0
-9 -10 -12 0
-9 -10 -11 0
-14 -15 -16 0
-13 -15 -16 0
-13 -14 -16 0
-13 -14 -15 0
-18 -19 -20 0
-17 -19 -20 0
-17 -18 -20 0
-17 -18 -19 0
-22 -23 -24 0
-21 -23 -24 0
-21 -22 -24 0
-21 -22 -23 0
-26 -27 -28 0
-25 -27 -28 0
-25 -26 -28 0
-25 -26 -27 0
-30 -31 -32 0
-29 -31 -32 0
-29 -30 -32 0
-29 -30 -31 0
-34 -35 -36 0
-33 -35 -36 0
-33 -34 -36 0
-33 -34 -35 0
-38 -39 -40 0
-37 -39 -40 0
-37 -38 -40 0
-37 -38 -39 0
-42 -43 -44 0
-41 -43 -44 0
-41 -42 -44 0
-41 -42 -43 0
-46 -47 -48 0
-45 -47 -48 0
-45 -46 -48 0
-45 -46 -47 0
-50 -51 -52 0
-49 -51 -52 0
-49 -50 -52 0
-49 -50 -51 0
-54 -55 -56 0
-53 -55 -56 0
-53 -54 -56 0
-53 -54 -55 0
-58 -59 -60 0
-57 -59 -60 0
-57 -58 -60 0
-57 -58 -59 0
-62 -63 -64 0
-61 -63 -64 0
-61 -62 -64 0
-61 -62 -63 0
-66 -67 -68 0
-65 -67 -68 0
-65 -66 -68 0
-65 -66 -67 0
-70 -71 -72 0
-69 -71 -72 0
-69 -70 -72 0
-69 -70 -71 0
-74 -75 -76 0
-73 -75 -76 0
-73 -74 -76 0
-73 -74 -75 0
-77 -78 -79 0
-77 -78 -80 0
-77 -78 -81 0
-77 -79 -80 0
-77 -79 -81 0
-77 -80 -81 0
-78 -79 -80 0
-78 -79 -81 0
-78 -80 -81 0
-79 -80 -81 0
56 38 5 0
75 38 5 0
75 56 5 0
75 56 38 0
61 32 54 0
60 32 54 0
60 61 54 0
60 61 32 0
9 4 47 0
13 4 47 0
13 9 47 0
13 9 4 0
33 74 44 0
23 74 44 0
23 33 44 0
23 33 74 0
69 49 6 0
31 49 6 0
31 69 6 0
31 69 49 0
57 21 1 0
72 21 1 0
72 57 1 0
72 57 21 0
50 35 45 0
27 35 45 0
27 50 45 0
27 50 35 0
65 34 39 0
12 34 39 0
12 65 39 0
12 65 34 0
70 53 68 0
77 53 68 0
77 70 68 0
77 70 53 0
15 66 58 0
7 66 58 0
7 15 58 0
7 15 66 0
59 37 52 0
79 37 52 0
79 59 52 0
79 59 37 0
55 22 10 0
51 22 10 0
51 55 10 0
51 55 22 0
48 64 8 0
81 64 8 0
81 48 8 0
81 48 64 0
62 28 42 0
11 28 42 0
11 62 42 0
11 62 28 0
29 14 78 0
41 14 78 0
41 29 78 0
41 29 14 0
16 20 71 0
73 20 71 0
73 16 71 0
73 16 20 0
36 2 19 0
30 2 19 0
30 36 19 0
30 36 2 0
40 46 43 0
17 46 43 0
17 40 43 0
17 40 46 0
80 76 3 0
26 76 3 0
26 80 3 0
26 80 76 0
18 25 67 0
18 25 24 0
18 25 63 0
18 67 24 0
18 67 63 0
18 24 63 0
25 67 24 0
25 67 63 0
25 24 63 0
67 24 63 0
